NAME: Random_85_5
ELLAPSED_TIME_(ms): 130
TOUR_SIZE: 1867
TOUR_SECTION
0
46
40
21
55
16
29
1
41
45
81
33
68
80
2
58
71
63
6
18
5
52
10
49
60
22
67
25
84
24
3
20
82
14
17
31
42
32
77
44
13
66
69
54
34
39
47
74
19
30
37
78
26
73
4
64
50
35
79
57
59
36
75
8
43
12
48
15
9
7
56
76
65
11
23
51
61
28
83
70
62
53
38
72
27
0
EOF
